
Gurobi 9.0.2 (linux64) logging started Fri Jun  5 23:43:47 2020

Changed value of parameter LogFile to gurobi_logs/2020-06-05_23:43:42-rproblem7_mode=feasibility_sdp_reduce.log
   Prev:   Default: 
Parameter MIPFocus unchanged
   Value: 0  Min: 0  Max: 3  Default: 0
Parameter SolutionLimit unchanged
   Value: 2000000000  Min: 1  Max: 2000000000  Default: 2000000000
Parameter LogToConsole unchanged
   Value: 1  Min: 0  Max: 1  Default: 1
Changed value of parameter TimeLimit to 10000.0
   Prev: inf  Min: 0.0  Max: inf  Default: inf
Gurobi Optimizer version 9.0.2 build v9.0.2rc0 (linux64)
Optimize a model with 15328 rows, 15790 columns and 38878 nonzeros
Model fingerprint: 0x68154e83
Variable types: 178 continuous, 15612 integer (462 binary)
Coefficient statistics:
  Matrix range     [8e-01, 1e+03]
  Objective range  [2e-01, 5e+00]
  Bounds range     [1e+00, 1e+00]
  RHS range        [1e+00, 1e+01]
Presolve removed 15328 rows and 15790 columns
Presolve time: 0.01s
Presolve: All rows and columns removed

Explored 0 nodes (0 simplex iterations) in 0.02 seconds
Thread count was 1 (of 48 available processors)

Solution count 1: 648 

Optimal solution found (tolerance 1.00e-04)
Best objective 6.480000000000e+02, best bound 6.480000000000e+02, gap 0.0000%

Gurobi 9.0.2 (linux64) logging started Fri Jun  5 23:43:52 2020

Changed value of parameter LogFile to gurobi_logs/2020-06-05_23:43:42-rproblem7_mode=feasibility_sdp_reduce.log
   Prev:   Default: 
Parameter MIPFocus unchanged
   Value: 0  Min: 0  Max: 3  Default: 0
Parameter SolutionLimit unchanged
   Value: 2000000000  Min: 1  Max: 2000000000  Default: 2000000000
Parameter LogToConsole unchanged
   Value: 1  Min: 0  Max: 1  Default: 1
Changed value of parameter TimeLimit to 10000.0
   Prev: inf  Min: 0.0  Max: inf  Default: inf
Gurobi Optimizer version 9.0.2 build v9.0.2rc0 (linux64)
Optimize a model with 216864 rows, 133002 columns and 3871494 nonzeros
Model fingerprint: 0x861fafc9
Variable types: 18 continuous, 132984 integer (118296 binary)
Coefficient statistics:
  Matrix range     [2e-01, 2e+02]
  Objective range  [1e+00, 1e+00]
  Bounds range     [1e+00, 1e+00]
  RHS range        [1e+00, 4e+02]
Presolve removed 187602 rows and 101718 columns (presolve time = 5s) ...
Presolve removed 187602 rows and 101718 columns
Presolve time: 6.11s
Presolved: 29262 rows, 31284 columns, 271584 nonzeros
Variable types: 0 continuous, 31284 integer (31284 binary)

Deterministic concurrent LP optimizer: primal and dual simplex
Showing first log only...


Root simplex log...

Iteration    Objective       Primal Inf.    Dual Inf.      Time
       0    3.0748000e+04   2.704250e+03   1.140233e+10      7s
Concurrent spin time: 0.00s

Solved with dual simplex

Root relaxation: objective 3.087600e+04, 4763 iterations, 0.51 seconds

    Nodes    |    Current Node    |     Objective Bounds      |     Work
 Expl Unexpl |  Obj  Depth IntInf | Incumbent    BestBd   Gap | It/Node Time

H    0     0                    30876.000000 30684.0000  0.62%     -    7s
     0     0          -    0      30876.0000 30876.0000  0.00%     -    7s

Explored 0 nodes (7375 simplex iterations) in 7.74 seconds
Thread count was 24 (of 48 available processors)

Solution count 1: 30876 

Optimal solution found (tolerance 1.00e-04)
Best objective 3.087600000000e+04, best bound 3.087600000000e+04, gap 0.0000%
